certificates/rado_a6_c286_N47.cnf
c Rad2 upper bound instance: x1 + 6*x2 - x3 = 286, interval [1,47]
p cnf 47 352
1 5 47 0
-1 -5 -47 0
2 6 47 0
-2 -6 -47 0
3 7 47 0
-3 -7 -47 0
4 8 47 0
-4 -8 -47 0
5 9 47 0
-5 -9 -47 0
6 10 47 0
-6 -10 -47 0
1 11 46 0
-1 -11 -46 0
7 11 47 0
-7 -11 -47 0
2 12 46 0
-2 -12 -46 0
8 12 47 0
-8 -12 -47 0
3 13 46 0
-3 -13 -46 0
9 13 47 0
-9 -13 -47 0
4 14 46 0
-4 -14 -46 0
10 14 47 0
-10 -14 -47 0
5 15 46 0
-5 -15 -46 0
11 15 47 0
-11 -15 -47 0
6 16 46 0
-6 -16 -46 0
12 16 47 0
-12 -16 -47 0
1 17 45 0
-1 -17 -45 0
7 17 46 0
-7 -17 -46 0
13 17 47 0
-13 -17 -47 0
2 18 45 0
-2 -18 -45 0
8 18 46 0
-8 -18 -46 0
14 18 47 0
-14 -18 -47 0
3 19 45 0
-3 -19 -45 0
9 19 46 0
-9 -19 -46 0
15 19 47 0
-15 -19 -47 0
4 20 45 0
-4 -20 -45 0
10 20 46 0
-10 -20 -46 0
16 20 47 0
-16 -20 -47 0
5 21 45 0
-5 -21 -45 0
11 21 46 0
-11 -21 -46 0
17 21 47 0
-17 -21 -47 0
6 22 45 0
-6 -22 -45 0
12 22 46 0
-12 -22 -46 0
18 22 47 0
-18 -22 -47 0
1 23 44 0
-1 -23 -44 0
7 23 45 0
-7 -23 -45 0
13 23 46 0
-13 -23 -46 0
19 23 47 0
-19 -23 -47 0
2 24 44 0
-2 -24 -44 0
8 24 45 0
-8 -24 -45 0
14 24 46 0
-14 -24 -46 0
20 24 47 0
-20 -24 -47 0
3 25 44 0
-3 -25 -44 0
9 25 45 0
-9 -25 -45 0
15 25 46 0
-15 -25 -46 0
21 25 47 0
-21 -25 -47 0
4 26 44 0
-4 -26 -44 0
10 26 45 0
-10 -26 -45 0
16 26 46 0
-16 -26 -46 0
22 26 47 0
-22 -26 -47 0
5 27 44 0
-5 -27 -44 0
11 27 45 0
-11 -27 -45 0
17 27 46 0
-17 -27 -46 0
23 27 47 0
-23 -27 -47 0
6 28 44 0
-6 -28 -44 0
12 28 45 0
-12 -28 -45 0
18 28 46 0
-18 -28 -46 0
24 28 47 0
-24 -28 -47 0
1 29 43 0
-1 -29 -43 0
7 29 44 0
-7 -29 -44 0
13 29 45 0
-13 -29 -45 0
19 29 46 0
-19 -29 -46 0
25 29 47 0
-25 -29 -47 0
2 30 43 0
-2 -30 -43 0
8 30 44 0
-8 -30 -44 0
14 30 45 0
-14 -30 -45 0
20 30 46 0
-20 -30 -46 0
26 30 47 0
-26 -30 -47 0
3 31 43 0
-3 -31 -43 0
9 31 44 0
-9 -31 -44 0
15 31 45 0
-15 -31 -45 0
21 31 46 0
-21 -31 -46 0
27 31 47 0
-27 -31 -47 0
4 32 43 0
-4 -32 -43 0
10 32 44 0
-10 -32 -44 0
16 32 45 0
-16 -32 -45 0
22 32 46 0
-22 -32 -46 0
28 32 47 0
-28 -32 -47 0
5 33 43 0
-5 -33 -43 0
11 33 44 0
-11 -33 -44 0
17 33 45 0
-17 -33 -45 0
23 33 46 0
-23 -33 -46 0
29 33 47 0
-29 -33 -47 0
6 34 43 0
-6 -34 -43 0
12 34 44 0
-12 -34 -44 0
18 34 45 0
-18 -34 -45 0
24 34 46 0
-24 -34 -46 0
30 34 47 0
-30 -34 -47 0
1 35 42 0
-1 -35 -42 0
7 35 43 0
-7 -35 -43 0
13 35 44 0
-13 -35 -44 0
19 35 45 0
-19 -35 -45 0
25 35 46 0
-25 -35 -46 0
31 35 47 0
-31 -35 -47 0
2 36 42 0
-2 -36 -42 0
8 36 43 0
-8 -36 -43 0
14 36 44 0
-14 -36 -44 0
20 36 45 0
-20 -36 -45 0
26 36 46 0
-26 -36 -46 0
32 36 47 0
-32 -36 -47 0
3 37 42 0
-3 -37 -42 0
9 37 43 0
-9 -37 -43 0
15 37 44 0
-15 -37 -44 0
21 37 45 0
-21 -37 -45 0
27 37 46 0
-27 -37 -46 0
33 37 47 0
-33 -37 -47 0
4 38 42 0
-4 -38 -42 0
10 38 43 0
-10 -38 -43 0
16 38 44 0
-16 -38 -44 0
22 38 45 0
-22 -38 -45 0
28 38 46 0
-28 -38 -46 0
34 38 47 0
-34 -38 -47 0
5 39 42 0
-5 -39 -42 0
11 39 43 0
-11 -39 -43 0
17 39 44 0
-17 -39 -44 0
23 39 45 0
-23 -39 -45 0
29 39 46 0
-29 -39 -46 0
35 39 47 0
-35 -39 -47 0
6 40 42 0
-6 -40 -42 0
12 40 43 0
-12 -40 -43 0
18 40 44 0
-18 -40 -44 0
24 40 45 0
-24 -40 -45 0
30 40 46 0
-30 -40 -46 0
36 40 47 0
-36 -40 -47 0
1 41 0
-1 -41 0
7 41 42 0
-7 -41 -42 0
13 41 43 0
-13 -41 -43 0
19 41 44 0
-19 -41 -44 0
25 41 45 0
-25 -41 -45 0
31 41 46 0
-31 -41 -46 0
37 41 47 0
-37 -41 -47 0
2 41 42 0
-2 -41 -42 0
8 42 0
-8 -42 0
14 42 43 0
-14 -42 -43 0
20 42 44 0
-20 -42 -44 0
26 42 45 0
-26 -42 -45 0
32 42 46 0
-32 -42 -46 0
38 42 47 0
-38 -42 -47 0
3 41 43 0
-3 -41 -43 0
9 42 43 0
-9 -42 -43 0
15 43 0
-15 -43 0
21 43 44 0
-21 -43 -44 0
27 43 45 0
-27 -43 -45 0
33 43 46 0
-33 -43 -46 0
39 43 47 0
-39 -43 -47 0
4 41 44 0
-4 -41 -44 0
10 42 44 0
-10 -42 -44 0
16 43 44 0
-16 -43 -44 0
22 44 0
-22 -44 0
28 44 45 0
-28 -44 -45 0
34 44 46 0
-34 -44 -46 0
40 44 47 0
-40 -44 -47 0
5 41 45 0
-5 -41 -45 0
11 42 45 0
-11 -42 -45 0
17 43 45 0
-17 -43 -45 0
23 44 45 0
-23 -44 -45 0
29 45 0
-29 -45 0
35 45 46 0
-35 -45 -46 0
41 45 47 0
-41 -45 -47 0
6 41 46 0
-6 -41 -46 0
12 42 46 0
-12 -42 -46 0
18 43 46 0
-18 -43 -46 0
24 44 46 0
-24 -44 -46 0
30 45 46 0
-30 -45 -46 0
36 46 0
-36 -46 0
42 46 47 0
-42 -46 -47 0
1 40 47 0
-1 -40 -47 0
7 41 47 0
-7 -41 -47 0
13 42 47 0
-13 -42 -47 0
19 43 47 0
-19 -43 -47 0
25 44 47 0
-25 -44 -47 0
31 45 47 0
-31 -45 -47 0
37 46 47 0
-37 -46 -47 0
43 47 0
-43 -47 0
