certificates/rado_a6_c286_N47.drat
-47 0
43 0
-15 0
11 0
19 0
-39 0
35 0
-7 0
-45 0
3 0
23 0
41 0
29 0
31 0
0
